c 
c G(k,n,p) graph
c graph gen seed     : 7912
c number of vertices : 50
c max number of edges: 625
c number of classes  : 2
c edge density       : 0.400000
c edge probability   : 0.800000
c data structure     : dense
c
c           Graph Stats
c number of vertices  : 50
c nonisolated vertices: 50
c number of edges     : 493
c edge density        : 0.402449
c max degree          : 25
c avg degree          : 19.72
c min degree          : 14
p col 50 493
e 1 2
e 1 6
e 1 8
e 1 9
e 1 10
e 1 12
e 1 13
e 1 16
e 1 25
e 1 27
e 1 32
e 1 34
e 1 35
e 1 36
e 1 41
e 1 42
e 1 45
e 1 46
e 1 47
e 1 49
e 2 3
e 2 4
e 2 5
e 2 14
e 2 15
e 2 17
e 2 18
e 2 24
e 2 28
e 2 29
e 2 30
e 2 31
e 2 33
e 2 37
e 2 39
e 2 43
e 2 44
e 2 48
e 2 50
e 3 6
e 3 7
e 3 8
e 3 9
e 3 11
e 3 12
e 3 13
e 3 19
e 3 20
e 3 21
e 3 22
e 3 25
e 3 27
e 3 34
e 3 36
e 3 38
e 3 41
e 3 42
e 3 45
e 3 46
e 3 49
e 4 6
e 4 7
e 4 10
e 4 11
e 4 13
e 4 16
e 4 20
e 4 21
e 4 22
e 4 25
e 4 32
e 4 34
e 4 41
e 4 42
e 4 45
e 4 46
e 4 49
e 5 6
e 5 7
e 5 8
e 5 9
e 5 10
e 5 11
e 5 12
e 5 13
e 5 16
e 5 19
e 5 20
e 5 21
e 5 22
e 5 25
e 5 27
e 5 32
e 5 34
e 5 36
e 5 38
e 5 41
e 5 42
e 5 45
e 5 46
e 5 47
e 6 15
e 6 17
e 6 18
e 6 23
e 6 31
e 6 33
e 6 37
e 6 39
e 6 43
e 6 44
e 6 48
e 6 50
e 7 14
e 7 15
e 7 18
e 7 23
e 7 24
e 7 26
e 7 28
e 7 29
e 7 30
e 7 31
e 7 37
e 7 39
e 7 43
e 7 48
e 7 50
e 8 17
e 8 23
e 8 24
e 8 26
e 8 28
e 8 29
e 8 30
e 8 31
e 8 33
e 8 37
e 8 39
e 8 40
e 8 44
e 8 48
e 8 50
e 9 14
e 9 15
e 9 17
e 9 18
e 9 24
e 9 26
e 9 28
e 9 29
e 9 30
e 9 31
e 9 40
e 9 44
e 9 48
e 10 14
e 10 17
e 10 18
e 10 23
e 10 24
e 10 26
e 10 28
e 10 29
e 10 30
e 10 31
e 10 33
e 10 37
e 10 39
e 10 40
e 10 43
e 10 44
e 10 48
e 11 14
e 11 15
e 11 17
e 11 18
e 11 23
e 11 24
e 11 26
e 11 28
e 11 29
e 11 30
e 11 31
e 11 33
e 11 37
e 11 39
e 11 40
e 11 43
e 11 44
e 11 48
e 12 14
e 12 17
e 12 18
e 12 23
e 12 24
e 12 26
e 12 29
e 12 30
e 12 31
e 12 33
e 12 37
e 12 39
e 12 43
e 12 44
e 12 48
e 12 50
e 13 14
e 13 15
e 13 17
e 13 23
e 13 24
e 13 28
e 13 29
e 13 30
e 13 31
e 13 33
e 13 37
e 13 39
e 13 40
e 13 43
e 13 44
e 13 48
e 13 50
e 14 16
e 14 19
e 14 20
e 14 21
e 14 22
e 14 25
e 14 27
e 14 32
e 14 34
e 14 35
e 14 36
e 14 38
e 14 41
e 14 42
e 14 46
e 14 47
e 14 49
e 15 16
e 15 19
e 15 20
e 15 21
e 15 22
e 15 27
e 15 32
e 15 34
e 15 36
e 15 38
e 15 41
e 15 42
e 15 45
e 15 49
e 16 17
e 16 18
e 16 23
e 16 24
e 16 28
e 16 29
e 16 30
e 16 33
e 16 40
e 16 43
e 16 48
e 16 50
e 17 19
e 17 20
e 17 21
e 17 25
e 17 32
e 17 34
e 17 35
e 17 36
e 17 38
e 17 41
e 17 45
e 17 46
e 17 47
e 17 49
e 18 19
e 18 20
e 18 21
e 18 22
e 18 25
e 18 27
e 18 32
e 18 34
e 18 36
e 18 41
e 18 45
e 18 46
e 18 47
e 18 49
e 19 23
e 19 28
e 19 29
e 19 31
e 19 33
e 19 37
e 19 40
e 19 43
e 19 44
e 19 48
e 19 50
e 20 23
e 20 24
e 20 28
e 20 29
e 20 30
e 20 31
e 20 33
e 20 37
e 20 39
e 20 40
e 20 43
e 20 44
e 20 50
e 21 23
e 21 24
e 21 26
e 21 30
e 21 31
e 21 33
e 21 37
e 21 39
e 21 40
e 21 43
e 21 44
e 21 50
e 22 23
e 22 24
e 22 29
e 22 31
e 22 33
e 22 37
e 22 40
e 22 44
e 22 48
e 23 25
e 23 27
e 23 32
e 23 34
e 23 36
e 23 38
e 23 41
e 23 45
e 23 49
e 24 25
e 24 27
e 24 34
e 24 35
e 24 36
e 24 38
e 24 41
e 24 42
e 24 45
e 24 47
e 25 26
e 25 28
e 25 29
e 25 30
e 25 33
e 25 37
e 25 39
e 25 40
e 25 43
e 25 48
e 25 50
e 26 27
e 26 32
e 26 34
e 26 35
e 26 36
e 26 38
e 26 45
e 26 46
e 26 47
e 26 49
e 27 28
e 27 29
e 27 31
e 27 33
e 27 37
e 27 39
e 27 40
e 27 43
e 27 44
e 27 48
e 27 50
e 28 32
e 28 34
e 28 35
e 28 36
e 28 38
e 28 41
e 28 42
e 28 46
e 28 47
e 29 32
e 29 34
e 29 38
e 29 41
e 29 42
e 29 45
e 29 46
e 29 47
e 29 49
e 30 32
e 30 34
e 30 35
e 30 36
e 30 41
e 30 42
e 30 45
e 30 46
e 30 47
e 30 49
e 31 35
e 31 36
e 31 38
e 31 45
e 31 47
e 31 49
e 32 33
e 32 39
e 32 44
e 32 48
e 32 50
e 33 35
e 33 36
e 33 38
e 33 41
e 33 42
e 33 45
e 33 47
e 33 49
e 34 37
e 34 39
e 34 40
e 34 44
e 34 48
e 34 50
e 35 37
e 35 40
e 35 43
e 35 48
e 35 50
e 36 39
e 36 40
e 36 43
e 36 44
e 36 48
e 36 50
e 37 38
e 37 41
e 37 46
e 37 47
e 38 39
e 38 43
e 38 44
e 38 48
e 38 50
e 39 42
e 39 45
e 39 46
e 39 47
e 40 41
e 40 42
e 40 45
e 40 46
e 40 47
e 40 49
e 41 43
e 41 44
e 41 48
e 41 50
e 42 44
e 42 48
e 42 50
e 43 46
e 43 47
e 43 49
e 44 45
e 44 46
e 44 47
e 44 49
e 45 50
e 46 50
e 47 48
e 47 50
e 49 50
